(assert (forall ((pkt_0_4_6_0  Int  )(state_group_0_state_0_5_7_0  Int  )(state_group_0_state_1_6_8_0  Int  )) (let ((_n0 state_group_0_state_1_6_8_0 ))
(let ((_n1 state_group_0_state_0_5_7_0 ))
(let ((_n2 true ))
(let ((_n3 (+   _n1   (ite  _n2  1 0) ) ))
(let ((_n4 (ite (=  _n0  0)  _n3   _n1  ) ))
(let ((_n5 998 ))
(let ((_n6 (=   _n1   _n5 ) ))
(let ((_n7 false ))
(let ((_n8 (ite (=  _n1  998)  (ite  _n7  1 0)   _n0  ) ))
(let ((_n9 (<   _n8   (ite  _n2  1 0) ) ))
(let ((_n10 (ite (=  _n1  998)  _n7   _n9  ) ))
(let ((_n11 999 ))
(let ((_n12 (not  _n10 ) ))
(let ((_n13 (or   _n12   _n6 ) ))
(let ((_n14 (ite  _n13   (ite  _n7  1 0)   _n1  ) ))
(let ((_n15 (=   _n14   _n11 ) ))
(let ((_n16 (not  _n15 ) ))
(let ((_n17 (not  _n13 ) ))
(let ((_n18 (and   _n17   _n16 ) ))
(let ((_n19 (or   _n18   _n13 ) ))
(let ((_n20 (ite  _n19   (ite  _n7  1 0)   _n11  ) ))
(let ((_n21 (-  _n20 )))
(let ((_n22 1000 ))
(let ((_n23 (ite  _n19   (ite  _n7  1 0)   _n22  ) ))
(let ((_n24 (+   _n23   _n21 ) ))
(let ((_n25 (ite  _n19   (ite  _n7  1 0)   _n24  ) ))
(let ((_n26 (+   _n1   _n25 ) ))
(let ((_n27 (not  _n18 ) ))
(let ((_n28 (or   _n27   _n13 ) ))
(let ((_n29 997 ))
(let ((_n30 (ite  _n28   (ite  _n7  1 0)   _n29  ) ))
(let ((_n31 (-  _n30 )))
(let ((_n32 (ite  _n28   (ite  _n7  1 0)   _n5  ) ))
(let ((_n33 (+   _n32   _n31 ) ))
(let ((_n34 (ite  _n28   (ite  _n7  1 0)   _n33  ) ))
(let ((_n35 (+   _n1   _n34 ) ))
(let ((_n36 (ite (=  (ite  _n18  1 0)  1)  _n35   _n26  ) ))
(let ((_n37 (ite (=  (ite  _n10  1 0)  1)  _n36   _n1  ) ))
(let ((_n38 (ite (=  _n1  998)  _n0   (ite  _n7  1 0)  ) ))
(let ((_n39 (=   _n38   (ite  _n2  1 0) ) ))
(let ((_n40 (ite (=  _n1  998)  _n39   _n7  ) ))
(let ((_n41 (not  _n6 ) ))
(let ((_n42 (or   _n40   _n41 ) ))
(let ((_n43 4 ))
(let ((_n44 (ite  _n42   (ite  _n7  1 0)   _n43  ) ))
(let ((_n45 (+   _n44   _n44 ) ))
(let ((_n46 (ite  _n42   (ite  _n7  1 0)   _n45  ) ))
(let ((_n47 (+   _n1   _n46 ) ))
(let ((_n48 (and   _n40   _n6 ) ))
(let ((_n49 pkt_0_4_6_0 ))
(let ((_n50 (ite  _n48   _n49   (ite  _n7  1 0)  ) ))
(let ((_n51 (-  _n50 )))
(let ((_n52 (ite  _n48   _n5   (ite  _n7  1 0)  ) ))
(let ((_n53 (+   _n52   _n51 ) ))
(let ((_n54 (ite  _n48   _n53   (ite  _n7  1 0)  ) ))
(let ((_n55 (+   _n1   _n54 ) ))
(let ((_n56 (ite (=  (ite  _n40  1 0)  1)  _n55   _n47  ) ))
(let ((_n57 (ite (=  (ite  _n6  1 0)  1)  _n56   _n37  ) ))
(let ((_n58 (=   _n57   _n4 ) ))
(let ((_n60 (ite (=  _n1  999)  (ite  _n2  1 0)   _n0  ) ))
(let ((_n61 (ite (=  _n0  0)  _n60   _n0  ) ))
(let ((_n62 (not  _n19 ) ))
(let ((_n63 (+   _n0   (ite  _n62  1 0) ) ))
(let ((_n64 (ite (=  (ite  _n18  1 0)  1)  _n0   _n63  ) ))
(let ((_n65 (ite (=  (ite  _n10  1 0)  1)  _n64   _n0  ) ))
(let ((_n66 (ite  _n42   (ite  _n7  1 0)   _n29  ) ))
(let ((_n67 (+   _n66   _n44 ) ))
(let ((_n68 (ite  _n42   (ite  _n7  1 0)   _n67  ) ))
(let ((_n69 (+   _n0   _n68 ) ))
(let ((_n70 (ite  _n48   (ite  _n7  1 0)   _n0  ) ))
(let ((_n71 (+   _n70   (ite  _n48  1 0) ) ))
(let ((_n72 (ite (=  (ite  _n40  1 0)  1)  _n71   _n69  ) ))
(let ((_n73 (ite (=  (ite  _n6  1 0)  1)  _n72   _n65  ) ))
(let ((_n74 (=   _n73   _n61 ) ))
(let ((_n76 (ite (=  _n49  0)  _n49   (ite  _n7  1 0)  ) ))
(let ((_n77 (ite (=  _n49  0)  _n76   _n49  ) ))
(let ((_n78 (=   _n77   _n49 ) ))
(implies  (and (and (>= state_group_0_state_1_6_8_0 0) (< state_group_0_state_1_6_8_0 1024 ))  (and (and (>= state_group_0_state_0_5_7_0 0) (< state_group_0_state_0_5_7_0 1024 ))  (and (>= pkt_0_4_6_0 0) (< pkt_0_4_6_0 1024 )) ) )   (and  _n58  _n74  _n78 )  ))))))))))))))))))))))))))))))))))))))))))))))))))))))))))))))))))))))))))))))))
(check-sat)
(get-model)
(exit)